; Property from "Productive Use of Failure in Inductive Proof",
; Andrew Ireland and Alan Bundy, JAR 1996
(declare-datatypes (a)
  ((list :source |Prelude.[]| (nil :source |Prelude.[]|)
     (cons :source |Prelude.:| (head a) (tail (list a))))))
(declare-datatypes ()
  ((Nat :source Definitions.Nat (Z :source Definitions.Z)
     (S :source Definitions.S (proj1-S Nat)))))
(define-fun
  |\|\|| :source |Definitions.\|\||
    ((x Bool) (y Bool)) Bool (ite x true y))
(define-fun-rec
  == :source Definitions.==
    ((x Nat) (y Nat)) Bool
    (match x
      (case Z
        (match y
          (case Z true)
          (case (S z) false)))
      (case (S x2)
        (match y
          (case Z false)
          (case (S y2) (== x2 y2))))))
(define-fun-rec
  elem :source Definitions.elem
    ((x Nat) (y (list Nat))) Bool
    (match y
      (case nil false)
      (case (cons z xs) (|\|\|| (== x z) (elem x xs)))))
(define-fun-rec
  <=2 :source Definitions.<=
    ((x Nat) (y Nat)) Bool
    (match x
      (case Z true)
      (case (S z)
        (match y
          (case Z false)
          (case (S x2) (<=2 z x2))))))
(define-fun-rec
  insert :source Definitions.insert
    ((x Nat) (y (list Nat))) (list Nat)
    (match y
      (case nil (cons x (_ nil Nat)))
      (case (cons z xs)
        (ite (<=2 x z) (cons x y) (cons z (insert x xs))))))
(prove
  :source Properties.prop_T46
  (forall ((x Nat) (y Nat) (z (list Nat)))
    (=> (= x y) (elem x (insert y z)))))
